100
150
100
98
98
97
97
96
96
96
96
92
91
91
87
86
84
83
82
82
81
81
81
81
80
79
79
79
78
78
78
76
76
76
76
76
75
73
73
71
71
70
69
69
66
66
65
63
62
61
60
58
57
57
57
55
52
51
49
46
46
46
46
46
46
45
45
45
44
43
43
43
42
42
42
41
40
40
37
37
37
35
35
34
34
33
32
32
27
27
26
26
25
24
23
22
22
22
21
20
20
20
